p cnf 146 768
-1 -57 0
-1 -58 0
57 -57 0
58 -58 0
-15 -63 0
-15 -64 0
63 -63 0
64 -64 0
-29 -69 0
-29 -70 0
69 -69 0
70 -70 0
-43 -75 0
-43 -76 0
75 -75 0
76 -76 0
2 -57 0
2 -58 0
57 -57 0
58 -58 0
16 -63 0
16 -64 0
63 -63 0
64 -64 0
30 -69 0
30 -70 0
69 -69 0
70 -70 0
44 -75 0
44 -76 0
75 -75 0
76 -76 0
3 -57 0
3 -58 0
57 -57 0
58 -58 0
17 -63 0
17 -64 0
63 -63 0
64 -64 0
31 -69 0
31 -70 0
69 -69 0
70 -70 0
45 -75 0
45 -76 0
75 -75 0
76 -76 0
4 -81 -57 0
-4 81 -57 0
4 81 -58 0
-4 -81 -58 0
18 -81 -63 0
-18 81 -63 0
18 81 -64 0
-18 -81 -64 0
32 -81 -69 0
-32 81 -69 0
32 81 -70 0
-32 -81 -70 0
46 -81 -75 0
-46 81 -75 0
46 81 -76 0
-46 -81 -76 0
5 -57 0
5 -58 0
57 -57 0
58 -58 0
19 -63 0
19 -64 0
63 -63 0
64 -64 0
33 -69 0
33 -70 0
69 -69 0
70 -70 0
47 -75 0
47 -76 0
75 -75 0
76 -76 0
-6 -57 0
-6 -58 0
57 -57 0
58 -58 0
-20 -63 0
-20 -64 0
63 -63 0
64 -64 0
-34 -69 0
-34 -70 0
69 -69 0
70 -70 0
-48 -75 0
-48 -76 0
75 -75 0
76 -76 0
7 -57 0
7 -58 0
57 -57 0
58 -58 0
21 -63 0
21 -64 0
63 -63 0
64 -64 0
35 -69 0
35 -70 0
69 -69 0
70 -70 0
49 -75 0
49 -76 0
75 -75 0
76 -76 0
8 -82 -57 0
-8 82 -57 0
8 82 -58 0
-8 -82 -58 0
22 -82 -63 0
-22 82 -63 0
22 82 -64 0
-22 -82 -64 0
36 -82 -69 0
-36 82 -69 0
36 82 -70 0
-36 -82 -70 0
50 -82 -75 0
-50 82 -75 0
50 82 -76 0
-50 -82 -76 0
-9 -57 0
-9 -58 0
57 -57 0
58 -58 0
-23 -63 0
-23 -64 0
63 -63 0
64 -64 0
-37 -69 0
-37 -70 0
69 -69 0
70 -70 0
-51 -75 0
-51 -76 0
75 -75 0
76 -76 0
10 -83 -57 0
-10 83 -57 0
10 83 -58 0
-10 -83 -58 0
24 -83 -63 0
-24 83 -63 0
24 83 -64 0
-24 -83 -64 0
38 -83 -69 0
-38 83 -69 0
38 83 -70 0
-38 -83 -70 0
52 -83 -75 0
-52 83 -75 0
52 83 -76 0
-52 -83 -76 0
11 -84 -57 0
-11 84 -57 0
11 84 -58 0
-11 -84 -58 0
25 -84 -63 0
-25 84 -63 0
25 84 -64 0
-25 -84 -64 0
39 -84 -69 0
-39 84 -69 0
39 84 -70 0
-39 -84 -70 0
53 -84 -75 0
-53 84 -75 0
53 84 -76 0
-53 -84 -76 0
12 -57 0
12 -58 0
57 -57 0
58 -58 0
26 -63 0
26 -64 0
63 -63 0
64 -64 0
40 -69 0
40 -70 0
69 -69 0
70 -70 0
54 -75 0
54 -76 0
75 -75 0
76 -76 0
13 -85 -57 0
-13 85 -57 0
13 85 -58 0
-13 -85 -58 0
27 -85 -63 0
-27 85 -63 0
27 85 -64 0
-27 -85 -64 0
41 -85 -69 0
-41 85 -69 0
41 85 -70 0
-41 -85 -70 0
55 -85 -75 0
-55 85 -75 0
55 85 -76 0
-55 -85 -76 0
14 -86 -57 0
-14 86 -57 0
14 86 -58 0
-14 -86 -58 0
28 -86 -63 0
-28 86 -63 0
28 86 -64 0
-28 -86 -64 0
42 -86 -69 0
-42 86 -69 0
42 86 -70 0
-42 -86 -70 0
56 -86 -75 0
-56 86 -75 0
56 86 -76 0
-56 -86 -76 0
-123 57 0
123 -57 0
-124 58 0
123 -58 0
-123 -57 0
-124 -58 0
-129 57 123 0
129 -57 0
129 -123 0
-130 58 124 0
130 -58 0
130 -124 0
-129 -63 0
-130 -64 0
-135 63 129 0
135 -63 0
135 -129 0
-136 64 130 0
136 -64 0
136 -130 0
-135 -69 0
-136 -70 0
-141 69 135 0
141 -69 0
141 -135 0
-142 70 136 0
142 -70 0
142 -136 0
-141 -75 0
-142 -76 0
141 0
142 0
1 -87 -59 0
-1 87 -59 0
1 87 -60 0
-1 -87 -60 0
15 -87 -65 0
-15 87 -65 0
15 87 -66 0
-15 -87 -66 0
29 -87 -71 0
-29 87 -71 0
29 87 -72 0
-29 -87 -72 0
43 -87 -77 0
-43 87 -77 0
43 87 -78 0
-43 -87 -78 0
2 -59 0
2 -60 0
59 -59 0
60 -60 0
16 -65 0
16 -66 0
65 -65 0
66 -66 0
30 -71 0
30 -72 0
71 -71 0
72 -72 0
44 -77 0
44 -78 0
77 -77 0
78 -78 0
3 -59 0
3 -60 0
59 -59 0
60 -60 0
17 -65 0
17 -66 0
65 -65 0
66 -66 0
31 -71 0
31 -72 0
71 -71 0
72 -72 0
45 -77 0
45 -78 0
77 -77 0
78 -78 0
4 -59 0
4 -60 0
59 -59 0
60 -60 0
18 -65 0
18 -66 0
65 -65 0
66 -66 0
32 -71 0
32 -72 0
71 -71 0
72 -72 0
46 -77 0
46 -78 0
77 -77 0
78 -78 0
5 -88 -59 0
-5 88 -59 0
5 88 -60 0
-5 -88 -60 0
19 -88 -65 0
-19 88 -65 0
19 88 -66 0
-19 -88 -66 0
33 -88 -71 0
-33 88 -71 0
33 88 -72 0
-33 -88 -72 0
47 -88 -77 0
-47 88 -77 0
47 88 -78 0
-47 -88 -78 0
-6 -59 0
-6 -60 0
59 -59 0
60 -60 0
-20 -65 0
-20 -66 0
65 -65 0
66 -66 0
-34 -71 0
-34 -72 0
71 -71 0
72 -72 0
-48 -77 0
-48 -78 0
77 -77 0
78 -78 0
7 -89 -59 0
-7 89 -59 0
7 89 -60 0
-7 -89 -60 0
21 -89 -65 0
-21 89 -65 0
21 89 -66 0
-21 -89 -66 0
35 -89 -71 0
-35 89 -71 0
35 89 -72 0
-35 -89 -72 0
49 -89 -77 0
-49 89 -77 0
49 89 -78 0
-49 -89 -78 0
8 -59 0
8 -60 0
59 -59 0
60 -60 0
22 -65 0
22 -66 0
65 -65 0
66 -66 0
36 -71 0
36 -72 0
71 -71 0
72 -72 0
50 -77 0
50 -78 0
77 -77 0
78 -78 0
-9 -59 0
-9 -60 0
59 -59 0
60 -60 0
-23 -65 0
-23 -66 0
65 -65 0
66 -66 0
-37 -71 0
-37 -72 0
71 -71 0
72 -72 0
-51 -77 0
-51 -78 0
77 -77 0
78 -78 0
10 -90 -59 0
-10 90 -59 0
10 90 -60 0
-10 -90 -60 0
24 -90 -65 0
-24 90 -65 0
24 90 -66 0
-24 -90 -66 0
38 -90 -71 0
-38 90 -71 0
38 90 -72 0
-38 -90 -72 0
52 -90 -77 0
-52 90 -77 0
52 90 -78 0
-52 -90 -78 0
11 -59 0
11 -60 0
59 -59 0
60 -60 0
25 -65 0
25 -66 0
65 -65 0
66 -66 0
39 -71 0
39 -72 0
71 -71 0
72 -72 0
53 -77 0
53 -78 0
77 -77 0
78 -78 0
12 -59 0
12 -60 0
59 -59 0
60 -60 0
26 -65 0
26 -66 0
65 -65 0
66 -66 0
40 -71 0
40 -72 0
71 -71 0
72 -72 0
54 -77 0
54 -78 0
77 -77 0
78 -78 0
13 -59 0
13 -60 0
59 -59 0
60 -60 0
27 -65 0
27 -66 0
65 -65 0
66 -66 0
41 -71 0
41 -72 0
71 -71 0
72 -72 0
55 -77 0
55 -78 0
77 -77 0
78 -78 0
14 -59 0
14 -60 0
59 -59 0
60 -60 0
28 -65 0
28 -66 0
65 -65 0
66 -66 0
42 -71 0
42 -72 0
71 -71 0
72 -72 0
56 -77 0
56 -78 0
77 -77 0
78 -78 0
-125 59 0
125 -59 0
-126 60 0
125 -60 0
-125 -59 0
-126 -60 0
-131 59 125 0
131 -59 0
131 -125 0
-132 60 126 0
132 -60 0
132 -126 0
-131 -65 0
-132 -66 0
-137 65 131 0
137 -65 0
137 -131 0
-138 66 132 0
138 -66 0
138 -132 0
-137 -71 0
-138 -72 0
-143 71 137 0
143 -71 0
143 -137 0
-144 72 138 0
144 -72 0
144 -138 0
-143 -77 0
-144 -78 0
143 0
144 0
1 -61 0
1 -62 0
61 -61 0
62 -62 0
15 -67 0
15 -68 0
67 -67 0
68 -68 0
29 -73 0
29 -74 0
73 -73 0
74 -74 0
43 -79 0
43 -80 0
79 -79 0
80 -80 0
2 -61 0
2 -62 0
61 -61 0
62 -62 0
16 -67 0
16 -68 0
67 -67 0
68 -68 0
30 -73 0
30 -74 0
73 -73 0
74 -74 0
44 -79 0
44 -80 0
79 -79 0
80 -80 0
3 -61 0
3 -62 0
61 -61 0
62 -62 0
17 -67 0
17 -68 0
67 -67 0
68 -68 0
31 -73 0
31 -74 0
73 -73 0
74 -74 0
45 -79 0
45 -80 0
79 -79 0
80 -80 0
4 -91 -61 0
-4 91 -61 0
4 91 -62 0
-4 -91 -62 0
18 -91 -67 0
-18 91 -67 0
18 91 -68 0
-18 -91 -68 0
32 -91 -73 0
-32 91 -73 0
32 91 -74 0
-32 -91 -74 0
46 -91 -79 0
-46 91 -79 0
46 91 -80 0
-46 -91 -80 0
5 -92 -61 0
-5 92 -61 0
5 92 -62 0
-5 -92 -62 0
19 -92 -67 0
-19 92 -67 0
19 92 -68 0
-19 -92 -68 0
33 -92 -73 0
-33 92 -73 0
33 92 -74 0
-33 -92 -74 0
47 -92 -79 0
-47 92 -79 0
47 92 -80 0
-47 -92 -80 0
6 -93 -61 0
-6 93 -61 0
6 93 -62 0
-6 -93 -62 0
20 -93 -67 0
-20 93 -67 0
20 93 -68 0
-20 -93 -68 0
34 -93 -73 0
-34 93 -73 0
34 93 -74 0
-34 -93 -74 0
48 -93 -79 0
-48 93 -79 0
48 93 -80 0
-48 -93 -80 0
7 -94 -61 0
-7 94 -61 0
7 94 -62 0
-7 -94 -62 0
21 -94 -67 0
-21 94 -67 0
21 94 -68 0
-21 -94 -68 0
35 -94 -73 0
-35 94 -73 0
35 94 -74 0
-35 -94 -74 0
49 -94 -79 0
-49 94 -79 0
49 94 -80 0
-49 -94 -80 0
8 -95 -61 0
-8 95 -61 0
8 95 -62 0
-8 -95 -62 0
22 -95 -67 0
-22 95 -67 0
22 95 -68 0
-22 -95 -68 0
36 -95 -73 0
-36 95 -73 0
36 95 -74 0
-36 -95 -74 0
50 -95 -79 0
-50 95 -79 0
50 95 -80 0
-50 -95 -80 0
9 -96 -61 0
-9 96 -61 0
9 96 -62 0
-9 -96 -62 0
23 -96 -67 0
-23 96 -67 0
23 96 -68 0
-23 -96 -68 0
37 -96 -73 0
-37 96 -73 0
37 96 -74 0
-37 -96 -74 0
51 -96 -79 0
-51 96 -79 0
51 96 -80 0
-51 -96 -80 0
-10 -61 0
-10 -62 0
61 -61 0
62 -62 0
-24 -67 0
-24 -68 0
67 -67 0
68 -68 0
-38 -73 0
-38 -74 0
73 -73 0
74 -74 0
-52 -79 0
-52 -80 0
79 -79 0
80 -80 0
11 -61 0
11 -62 0
61 -61 0
62 -62 0
25 -67 0
25 -68 0
67 -67 0
68 -68 0
39 -73 0
39 -74 0
73 -73 0
74 -74 0
53 -79 0
53 -80 0
79 -79 0
80 -80 0
12 -61 0
12 -62 0
61 -61 0
62 -62 0
26 -67 0
26 -68 0
67 -67 0
68 -68 0
40 -73 0
40 -74 0
73 -73 0
74 -74 0
54 -79 0
54 -80 0
79 -79 0
80 -80 0
13 -61 0
13 -62 0
61 -61 0
62 -62 0
27 -67 0
27 -68 0
67 -67 0
68 -68 0
41 -73 0
41 -74 0
73 -73 0
74 -74 0
55 -79 0
55 -80 0
79 -79 0
80 -80 0
-14 -61 0
-14 -62 0
61 -61 0
62 -62 0
-28 -67 0
-28 -68 0
67 -67 0
68 -68 0
-42 -73 0
-42 -74 0
73 -73 0
74 -74 0
-56 -79 0
-56 -80 0
79 -79 0
80 -80 0
-127 61 0
127 -61 0
-128 62 0
127 -62 0
-127 -61 0
-128 -62 0
-133 61 127 0
133 -61 0
133 -127 0
-134 62 128 0
134 -62 0
134 -128 0
-133 -67 0
-134 -68 0
-139 67 133 0
139 -67 0
139 -133 0
-140 68 134 0
140 -68 0
140 -134 0
-139 -73 0
-140 -74 0
-145 73 139 0
145 -73 0
145 -139 0
-146 74 140 0
146 -74 0
146 -140 0
-145 -79 0
-146 -80 0
145 0
146 0
